Ce1 H10                                 
   1.00000000000000     
    -0.0000000000000000    2.3863766886576894    2.3863766886576894
     2.3863766886576894    0.0000000000000000    2.3863766886576894
     2.3863766886576894    2.3863766886576894   -0.0000000000000000
   Ce   H 
     1    10
Direct
  0.5000000000000000  0.5000000000000000  0.5000000000000000
  0.2500000000000000  0.2500000000000000  0.2500000000000000
  0.7500000000000000  0.7500000000000000  0.7500000000000000
  0.8775339545507732  0.8775339545507732  0.8775339545507732
  0.1224660454492269  0.1224660454492269  0.1224660454492269
  0.8775339545507732  0.8775339545507732  0.3673981363477021
  0.1224660454492269  0.1224660454492269  0.6326018636522980
  0.8775339545507732  0.3673981363477021  0.8775339545507732
  0.1224660454492269  0.6326018636522980  0.1224660454492269
  0.3673981363477021  0.8775339545507732  0.8775339545507732
  0.6326018636522980  0.1224660454492269  0.1224660454492269
 
  0.00000000E+00  0.00000000E+00  0.00000000E+00
  0.00000000E+00  0.00000000E+00  0.00000000E+00
  0.00000000E+00  0.00000000E+00  0.00000000E+00
  0.00000000E+00  0.00000000E+00  0.00000000E+00
  0.00000000E+00  0.00000000E+00  0.00000000E+00
  0.00000000E+00  0.00000000E+00  0.00000000E+00
  0.00000000E+00  0.00000000E+00  0.00000000E+00
  0.00000000E+00  0.00000000E+00  0.00000000E+00
  0.00000000E+00  0.00000000E+00  0.00000000E+00
  0.00000000E+00  0.00000000E+00  0.00000000E+00
  0.00000000E+00  0.00000000E+00  0.00000000E+00
