&input                      
  zasr = 'simple',          
  fildyn = 'Ce1H10.dyn'         
  flfrc = 'Ce1H10.fc',          
  la2F = .true.,                
  el_ph_nsigma=10,      
/                           
