Y  H 
 1.0000000000000000
    -1.6848999334256642    1.6848999334256642    1.6848999334256642
     1.6848999334256642   -1.6848999334256642    1.6848999334256642
     1.6848999334256642    1.6848999334256642   -1.6848999334256642
 Y   H  
   1   6
Direct
 -0.0000000000000000  0.0000000000000000  0.0000000000000000
  0.5000000000000000  0.7500000000000000  0.2500000000000001
  0.4999999999999999  0.2500000000000001  0.7500000000000000
  0.2499999999999999  0.5000000000000000  0.7500000000000000
  0.7499999999999999  0.5000000000000000  0.2500000000000001
  0.7500000000000000  0.2500000000000001  0.5000000000000000
  0.2500000000000000  0.7500000000000000  0.5000000000000000
