H12
 1.0000000000000000
     3.3697998668513285    0.0000000000000000    0.0000000000000000
     0.0000000000000000    3.3697998668513285    0.0000000000000000
     0.0000000000000000    0.0000000000000000    3.3697998668513285
 H  
 12
Direct
  0.0000000000000000  0.0000000000000000  0.0000000000000000
  0.4999999999999999  0.4999999999999999  0.4999999999999999
  0.2500000000000000  0.0000000000000000  0.4999999999999999
  0.2500000000000000  0.4999999999999999  0.0000000000000000
  0.4999999999999999  0.2500000000000000  0.0000000000000000
  0.0000000000000000  0.2500000000000000  0.4999999999999999
  0.4999999999999999  0.0000000000000000  0.7499999999999999
  0.0000000000000000  0.4999999999999999  0.7499999999999999
  0.7499999999999999  0.4999999999999999  0.0000000000000000
  0.7499999999999999  0.0000000000000000  0.4999999999999999
  0.0000000000000000  0.7499999999999999  0.4999999999999999
  0.4999999999999999  0.7499999999999999  0.0000000000000000
  0.0000000000000000  0.4999999999999999  0.2500000000000000
  0.4999999999999999  0.0000000000000000  0.2500000000000000
