La1 H10                                 
   1.00000000000000     
    -0.0000000000000000    2.4199997352171372    2.4199997352171376
     2.4199997352171372    0.0000000000000001    2.4199997352171372
     2.4199997352171372    2.4199997352171376   -0.0000000000000001
   La   H 
     1    10
Direct
 -0.0000000000000000 -0.0000000000000000  0.0000000000000000
  0.2500000000000000  0.2500000000000000  0.2500000000000000
  0.7500000000000000  0.7500000000000000  0.7500000000000000
  0.6207666176825415  0.6207666176825415  0.6207666176825415
  0.3792333823174583  0.3792333823174583  0.3792333823174583
  0.6207666176825415  0.6207666176825415  0.1377001469523538
  0.3792333823174583  0.3792333823174583  0.8622998530476461
  0.6207666176825415  0.1377001469523538  0.6207666176825415
  0.3792333823174583  0.8622998530476461  0.3792333823174583
  0.1377001469523538  0.6207666176825415  0.6207666176825415
  0.8622998530476461  0.3792333823174583  0.3792333823174583
 
  0.00000000E+00  0.00000000E+00  0.00000000E+00
  0.00000000E+00  0.00000000E+00  0.00000000E+00
  0.00000000E+00  0.00000000E+00  0.00000000E+00
  0.00000000E+00  0.00000000E+00  0.00000000E+00
  0.00000000E+00  0.00000000E+00  0.00000000E+00
  0.00000000E+00  0.00000000E+00  0.00000000E+00
  0.00000000E+00  0.00000000E+00  0.00000000E+00
  0.00000000E+00  0.00000000E+00  0.00000000E+00
  0.00000000E+00  0.00000000E+00  0.00000000E+00
  0.00000000E+00  0.00000000E+00  0.00000000E+00
  0.00000000E+00  0.00000000E+00  0.00000000E+00
