&CONTROL
 calculation='vc-relax',         
 restart_mode='from_scratch',    
 prefix='La1H10',                    
 pseudo_dir='/work/home/mayuan/workplace/1.typical_hydride/003.MH10/1.LaH10/250/Tc-666-paw/pp',                
 verbosity = 'high',             
 outdir='./tmp',                 
 forc_conv_thr = 1.0d-6,             
 etot_conv_thr = 1.0d-7,             
 wf_collect = .true.,            
 tstress = .true.,               
 tprnfor = .true.,               
 nstep = 2000,                   
/
&SYSTEM
 ibrav=0,                        
 nat=11,                         
 ntyp=2,                        
 occupations = 'smearing',         
 smearing = 'gauss',            
 degauss = 0.02,               
 ecutwfc = 80,                   
 ecutrho = 960,                   
 lspinorb = .false.,                
 noncolin = .false.,                
/
&ELECTRONS
 diagonalization = 'david'          
 conv_thr = 1.0d-9,                  
 mixing_beta = 0.7,               
 electron_maxstep = 200,          
/
&ions                            
 ion_dynamics = 'bfgs',          
/
&cell                            
 cell_dynamics = 'bfgs',         
 press = 2500.0,                     
 press_conv_thr = 0.01,            
/
ATOMIC_SPECIES                   
 La     138.90547   La.pbe-spfn-kjpaw_psl.1.0.0.UPF                    
 H      1.00794     H.pbe-kjpaw_psl.1.0.0.UPF                          
CELL_PARAMETERS {angstrom}        
   0.000000000   2.421610316   2.421610316
   2.421610316   0.000000000   2.421610316
   2.421610316   2.421610316   0.000000000
ATOMIC_POSITIONS (crystal)       
La           -0.0000000000        0.0000000000       -0.0000000000
H             0.2500000000        0.2500000000        0.2500000000
H             0.7500000000        0.7500000000        0.7500000000
H             0.6206182496        0.6206182496        0.6206182496
H             0.3793817504        0.3793817504        0.3793817504
H             0.6206182496        0.6206182496        0.1381452513
H             0.3793817504        0.3793817504        0.8618547487
H             0.6206182496        0.1381452513        0.6206182496
H             0.3793817504        0.8618547487        0.3793817504
H             0.1381452513        0.6206182496        0.6206182496
H             0.8618547487        0.3793817504        0.3793817504
K_POINTS {automatic}             
 24 24 24 0 0 0                  
