&CONTROL
 calculation='scf',              
 restart_mode='from_scratch',    
 prefix='La1H10',                    
 pseudo_dir='/work/home/mayuan/workplace/1.typical_hydride/003.MH10/1.LaH10/250/Tc-666-paw/pp',                
 verbosity = 'high',             
 outdir='./tmp',                 
 forc_conv_thr = 1.0d-6,             
 etot_conv_thr = 1.0d-7,             
 tstress=.true.,                 
 tprnfor=.true.,                 
/
&SYSTEM
 ibrav=0,                        
 nat=11,                         
 ntyp=2,                        
 occupations = 'smearing',         
 smearing = 'gauss',            
 degauss = 0.02,               
 ecutwfc = 80,                   
 ecutrho = 960,                   
 lspinorb = .false.,                
 noncolin = .false.,                
 la2F = .true.,                      
/
&ELECTRONS
 conv_thr = 1.0d-9,                  
 mixing_beta = 0.7,               
 electron_maxstep = 200,          
/
ATOMIC_SPECIES                   
 La     138.90547   La.pbe-spfn-kjpaw_psl.1.0.0.UPF                    
 H      1.00794     H.pbe-kjpaw_psl.1.0.0.UPF                          
CELL_PARAMETERS (angstrom)
  -0.000000000   2.421570718   2.421570718
   2.421570718  -0.000000000   2.421570718
   2.421570718   2.421570718  -0.000000000
ATOMIC_POSITIONS (crystal)
La               0.0000000000        0.0000000000        0.0000000000
H                0.2500000000        0.2500000000        0.2500000000
H                0.7500000000        0.7500000000        0.7500000000
H                0.6206181221        0.6206181221        0.6206181221
H                0.3793818779        0.3793818779        0.3793818779
H                0.6206181221        0.6206181221        0.1381456338
H                0.3793818779        0.3793818779        0.8618543662
H                0.6206181221        0.1381456338        0.6206181221
H                0.3793818779        0.8618543662        0.3793818779
H                0.1381456338        0.6206181221        0.6206181221
H                0.8618543662        0.3793818779        0.3793818779
K_POINTS {automatic}             
 24 24 24 0 0 0                  
