Electron-phonon coefficients for La1H10                
 &inputph                                          
  tr2_ph=1.0d-14,                                       
  prefix='La1H10',                                     
  fildvscf='dvscf',                                
  outdir='./tmp',                                  
  fildyn='La1H10.dyn',                                 
  alpha_mix(1)=0.3,                                 
  ldisp=.true.,                                   
  search_sym = .true.                                  
  start_q=6                                       
  last_q=6                                        
  amass(1)=138.90547 ,                                
  amass(2)=1.00794 ,                                
  electron_phonon='interpolated',                    
  el_ph_sigma=0.005,                          
  el_ph_nsigma=10,                         
  trans=.true.,                                
  nq1=6,nq2=6,nq3=6,                    
/                                                  
